JulietBench/Juliet_Based_Patch_Bench/linux/CWE-189-Numeric-Errors/CVE_2010_3859_253eacc070b114c2ec1f81b067d2fed7305467b0/ResultSYSCALL_DEFINE6_Snippet_patch1NEQ.smt2
; benchmark generated from python API
(set-info :status unknown)
(declare-fun rdi () (_ BitVec 64))
(declare-fun R () (_ BitVec 32))
(assert
 (let ((?x43 ((_ extract 31 0) rdi)))
 (let (($x44 (= R ?x43)))
 (let (($x15 (bvult rdi (_ bv2147483648 64))))
 (let (($x48 (and $x15 $x44)))
 (let (($x46 (= (_ bv2147483647 32) R)))
 (let (($x37 (bvuge rdi (_ bv2147483648 64))))
 (let (($x47 (and $x37 $x46)))
 (let (($x49 (or $x47 $x48)))
 (let (($x52 (not $x49)))
 (let (($x51 (and (distinct R ?x43) true)))
 (let (($x53 (and $x51 $x52)))
 (let (($x50 (and $x44 $x49)))
 (let (($x54 (or $x50 $x53)))
 (not $x54)))))))))))))))
(check-sat)
